c description: Random 3-CNF over 5 variables and 1 clauses
c generator: CNFgen (0.9.2)
c copyright: (C) 2012-2022 Massimo Lauria <massimo.lauria@uniroma1.it>
c url: https://massimolauria.net/cnfgen
c command line: cnfgen randkcnf 3 5 1
c
p cnf 5 1
2 4 -5 0
